Route #1: 29 57 63 31 40 13 54 85 21
Route #2: 82 94 64 105 69 17 2 83 77 101
Route #3: 96 51 60 87 76 15 5
Route #4: 72 34 74 11 99 49 97
Route #5: 45 100 43 93 28 103 53 44
Route #6: 67 48 8 36 91 88 58 14
Route #7: 1 104 12 9 84 75 7
Route #8: 62 26 90 24 102 92 52
Route #9: 22 33
Route #10: 78 19 27 37 79 71 46 66
Route #11: 86 18 41 10 16 20 56
Route #12: 59 89 30 42 23 3 32 73 35
Route #13: 55 98 4 70 6 81 50 39
Route #14: 25 68 95 38 65 80 61 47
Cost 26384
